50
100
91
88
88
87
87
86
86
85
85
84
83
80
79
78
77
70
70
68
67
66
59
52
49
48
47
47
44
42
38
37
37
34
34
33
31
29
27
24
21
17
16
16
15
14
8
6
5
4
2
2
